% File represents an instance of a Composite Structure problem to be solved by a CP framework
% Created on 2025-03-26 10:41:25.382
T = 58;
n = 16;
m = 24;
edges = [(2, 1),
(6, 5),
(10, 9),
(14, 13),
(3, 2),
(7, 6),
(11, 10),
(14, 15),
(3, 4),
(7, 8),
(11, 12),
(16, 15),
(1, 5),
(9, 5),
(13, 9),
(2, 6),
(10, 6),
(14, 10),
(3, 7),
(11, 7),
(11, 15),
(4, 8),
(12, 8),
(12, 16)];
counts = [|2, 22, 2, 20,
|4, 24, 4, 20,
|4, 28, 4, 22,
|4, 26, 4, 22,
|2, 18, 2, 20,
|4, 20, 4, 20,
|4, 26, 4, 20,
|4, 26, 4, 18,
|4, 20, 4, 20,
|4, 22, 4, 24,
|4, 26, 4, 24,
|4, 26, 4, 22,
|4, 20, 4, 24,
|4, 22, 4, 28,
|4, 22, 4, 22,
|4, 24, 4, 22|];
